param m := 7;

set S := "A" "B" "C" "D";

param req := 
A 2
B 2
C 3
D 2;

param comp : A B C D :=
1   0 0 1 0
2   1 0 0 1
3   0 1 1 1
4   1 0 1 1
5   0 1 0 1
6   0 1 1 1
7   0 0 1 0;
